Set parameter Username
Academic license - for non-commercial use only - expires 2024-10-29
Set parameter LazyConstraints to value 1
Set parameter TimeLimit to value 600
Gurobi Optimizer version 10.0.0 build v10.0.0rc2 (linux64)

CPU model: AMD FX(tm)-4300 Quad-Core Processor, instruction set [SSE2|AVX]
Thread count: 2 physical cores, 4 logical processors, using up to 4 threads

Optimize a model with 10125 rows, 2500 columns and 11287 nonzeros
Model fingerprint: 0xf8aea162
Variable types: 0 continuous, 2500 integer (2500 binary)
Coefficient statistics:
  Matrix range     [1e+00, 1e+00]
  Objective range  [1e+00, 1e+01]
  Bounds range     [1e+00, 1e+00]
  RHS range        [1e+00, 1e+00]
Presolve removed 10000 rows and 0 columns
Presolve time: 0.01s
Presolved: 125 rows, 2500 columns, 1287 nonzeros
Variable types: 0 continuous, 2500 integer (2500 binary)

Root relaxation: objective 1.640000e+02, 119 iterations, 0.00 seconds (0.00 work units)

    Nodes    |    Current Node    |     Objective Bounds      |     Work
 Expl Unexpl |  Obj  Depth IntInf | Incumbent    BestBd   Gap | It/Node Time

     0     0  164.00000    0    -          -  164.00000      -     -    4s
     0     0  164.00000    0    -          -  164.00000      -     -    5s
     0     0  164.50000    0    3          -  164.50000      -     -    5s
     0     0  227.00000    0    -          -  227.00000      -     -   12s
H    0     0                     857.0000000  227.50000  73.5%     -   13s
     0     0  227.50000    0    4  857.00000  227.50000  73.5%     -   13s
     0     0  254.00000    0    -  857.00000  254.00000  70.4%     -   23s
     0     0  255.00000    0    -  857.00000  255.00000  70.2%     -   24s
     0     0  255.00000    0    -  857.00000  255.00000  70.2%     -   25s
     0     0  255.00000    0    -  857.00000  255.00000  70.2%     -   25s
     0     0  255.00000    0    -  857.00000  255.00000  70.2%     -   26s
     0     0  255.00000    0    -  857.00000  255.00000  70.2%     -   27s
     0     0  255.00000    0    -  857.00000  255.00000  70.2%     -   28s
     0     0  255.00000    0    3  857.00000  255.00000  70.2%     -   28s
H    0     0                     706.0000000  255.00000  63.9%     -   40s
     0     0  255.00000    0    4  706.00000  255.00000  63.9%     -   40s
     0     0  262.75000    0    8  706.00000  262.75000  62.8%     -   40s
     0     0  262.75000    0    8  706.00000  262.75000  62.8%     -   48s
     0     0  262.75000    0    8  706.00000  262.75000  62.8%     -   52s
     0     2  265.50000    0    8  706.00000  265.50000  62.4%     -   54s
     7    10  265.66667    4    5  706.00000  265.66667  62.4%   4.1   59s
    15    30  265.66667    6    5  706.00000  265.66667  62.4%   4.9   64s
    29    26  265.83333   11   11  706.00000  265.66667  62.4%   3.8   68s
    61    69  266.00000   12    -  706.00000  265.66667  62.4%   4.2   80s
    94   103  266.33333   24    4  706.00000  265.66667  62.4%   3.4   92s
H   96   103                     699.0000000  265.66667  62.0%   3.3   93s
H  103   103                     693.0000000  265.66667  61.7%   3.3   96s
H  122   103                     687.0000000  265.66667  61.3%   3.3  104s
   124   122  266.66667   39    5  687.00000  265.66667  61.3%   3.4  106s
   143   144  266.66667   51    7  687.00000  265.66667  61.3%   3.3  113s
   177   195  267.28571   64    7  687.00000  265.66667  61.3%   3.4  124s
H  178   195                     681.0000000  265.66667  61.0%   3.3  125s
H  179   195                     677.0000000  265.66667  60.8%   3.3  126s
H  189   198                     668.0000000  265.66667  60.2%   3.4  129s
   230   233  266.33333   13    4  668.00000  265.66667  60.2%   3.3  146s
   264   265  266.50000   26    3  668.00000  265.66667  60.2%   3.3  156s
   306   311  266.50000   45    4  668.00000  265.66667  60.2%   3.5  167s
   355   359  267.00000   64    -  668.00000  265.66667  60.2%   3.5  180s
   401   392  266.80000   17    6  668.00000  265.66667  60.2%   3.6  192s
   447   444  266.66667   28    5  668.00000  265.66667  60.2%   3.8  205s
   502   454  266.66667   40    5  668.00000  265.66667  60.2%   3.9  218s
   515   476  266.66667   44    5  668.00000  265.66667  60.2%   4.0  224s
   551   514  268.50000   53    3  668.00000  265.66667  60.2%   4.2  234s
   582   549  268.50000   60    3  668.00000  265.66667  60.2%   4.3  244s
   622   575  268.83333   69    7  668.00000  265.66667  60.2%   4.4  254s
   659   621  266.66667   19    5  668.00000  265.66667  60.2%   4.6  266s
   716   653  268.00000   48    -  668.00000  265.66667  60.2%   4.6  287s
   754   661  268.00000   46    8  668.00000  265.66667  60.2%   4.6  298s
   756   662  268.80000  104   19  668.00000  265.66667  60.2%   4.6  304s
   757   663  266.66667   41   13  668.00000  265.66667  60.2%   4.6  309s
H  758   664                     662.0000000  265.66667  59.9%   4.6  312s
H  759   664                     615.0000000  268.75000  56.3%   4.6  313s
   762   666  273.27273    4   12  615.00000  273.27273  55.6%   4.6  319s
   763   667  274.10106   72   26  615.00000  274.10106  55.4%   4.6  326s
H  763   667                     603.0000000  275.10294  54.4%   4.6  326s
H  764   668                     578.0000000  275.54464  52.3%   4.6  328s
   765   668  275.54464  109   16  578.00000  275.54464  52.3%   4.6  333s
H  765   668                     569.0000000  275.93650  51.5%   4.6  334s
   767   670  276.27690   70   39  569.00000  276.27690  51.4%   4.6  335s
H  767   670                     529.0000000  276.59366  47.7%   4.6  336s
   771   672  277.93090   89   35  529.00000  277.93090  47.5%   4.5  340s
   777   677  278.64857   38   25  529.00000  278.64857  47.3%   7.0  347s
   778   678  278.64857   16   14  529.00000  278.64857  47.3%   7.0  361s
   781   680  278.64857   34    7  529.00000  278.64857  47.3%   6.9  369s
   783   681  278.64857   93   23  529.00000  278.64857  47.3%   6.9  370s
H  788   685                     503.0000000  278.73389  44.6%   6.9  373s
   791   687  279.47516   43   47  503.00000  279.47516  44.4%   6.8  375s
   799   692  281.65566   16   63  503.00000  281.65566  44.0%   6.8  380s
H  804   695                     501.0000000  282.57720  43.6%   6.7  383s
   807   697  282.85211   47   66  501.00000  282.85211  43.5%   6.7  385s
H  809   699                     483.0000000  283.13937  41.4%   6.7  387s
H  811   700                     470.0000000  283.30364  39.7%   6.7  389s
   813   701  283.36736   24   69  470.00000  283.36736  39.7%   6.7  390s
H  816   703                     465.0000000  283.55093  39.0%   6.6  395s
   820   706  283.72031   15   78  465.00000  283.72031  39.0%   6.6  410s
   828   712  283.92283   57   19  465.00000  283.92283  38.9%  12.5  418s
   829   713  283.92283   17   16  465.00000  283.92283  38.9%  12.5  420s
   841   721  283.92283    6   38  465.00000  283.92283  38.9%  12.3  425s
   851   728  283.92283   98   70  465.00000  283.92283  38.9%  12.2  430s
   859   733  284.11543   66   97  465.00000  284.11543  38.9%  12.1  435s
   867   738  285.06857   70   87  465.00000  285.06857  38.7%  12.0  440s
H  872   742                     458.0000000  285.38425  37.7%  11.9  444s
H  873   742                     457.0000000  285.42912  37.5%  11.9  445s
   881   748  285.83896   34   91  457.00000  285.83896  37.5%  11.8  450s
H  886   751                     445.0000000  286.16036  35.7%  11.7  455s
   890   755  286.16036   65   18  445.00000  286.16036  35.7%  19.0  462s
   892   757  286.16036   34    8  445.00000  286.16036  35.7%  19.0  468s
   897   760  286.16036   71   30  445.00000  286.16036  35.7%  18.9  470s
   906   766  286.16036   11   53  445.00000  286.16036  35.7%  18.7  475s
   915   772  286.56592   70   73  445.00000  286.56592  35.6%  18.5  480s
   923   777  287.80507   32   67  445.00000  287.80507  35.3%  18.3  485s
   931   783  288.53441   20   91  445.00000  288.53441  35.2%  18.2  490s
   939   788  288.89938   19  101  445.00000  288.89938  35.1%  18.0  495s
   946   793  289.19709  104   96  445.00000  289.19709  35.0%  17.9  500s
   953   797  289.59270   45   99  445.00000  289.59270  34.9%  17.7  505s
   961   803  289.96940   42   93  445.00000  289.96940  34.8%  17.6  510s
   968   807  290.73570   55   92  445.00000  290.73570  34.7%  17.5  515s
H  969   808                     438.0000000  290.89268  33.6%  17.5  516s
   975   812  291.07035   46   89  438.00000  291.07035  33.5%  17.3  520s
   982   817  291.34242   74  103  438.00000  291.34242  33.5%  17.2  525s
H  985   819                     429.0000000  291.46919  32.1%  17.2  528s
   990   823  291.46919   65   25  429.00000  291.46919  32.1%  29.4  532s
   995   827  291.46919   43   20  429.00000  291.46919  32.1%  29.2  535s
  1004   833  291.46919   47   54  429.00000  291.46919  32.1%  29.0  540s
  1011   837  291.46919   61   66  429.00000  291.46919  32.1%  28.8  545s
  1019   843  291.46919   14   74  429.00000  291.46919  32.1%  28.5  550s
  1027   848  291.46919   46   95  429.00000  291.46919  32.1%  28.3  555s
  1035   853  291.67431   46  102  429.00000  291.67431  32.0%  28.1  560s
  1042   858  291.97721   35  104  429.00000  291.97721  31.9%  27.9  565s
H 1043   859                     403.0000000  292.05093  27.5%  27.9  567s
  1047   861  292.11923   44  112  403.00000  292.11923  27.5%  27.8  571s
  1052   866  292.11950   73   23  403.00000  292.11950  27.5%  33.9  579s
  1053   867  292.11950   45    8  403.00000  292.11950  27.5%  33.9  589s
  1056   869  292.11950  104   23  403.00000  292.11950  27.5%  33.8  590s
  1065   875  292.11950  109   39  403.00000  292.11950  27.5%  33.5  595s
  1073   880  292.11950   31   65  403.00000  292.11950  27.5%  33.2  600s

Cutting planes:
  User: 38
  Gomory: 1
  MIR: 1
  Flow cover: 2
  Zero half: 1
  Lazy constraints: 20

Explored 1073 nodes (38420 simplex iterations) in 600.30 seconds (13.94 work units)
Thread count was 4 (of 4 available processors)

Solution count 10: 403 429 438 ... 501

Time limit reached
Best objective 4.030000000000e+02, best bound 2.930000000000e+02, gap 27.2953%

User-callback calls 6064, time in user-callback 584.87 sec
